experiments/sat_smt/run/sat-r+/results/willow.res
solved=true
solvingTime=149.210723876953125
nActions=14