experiments/sat_smt/run/sat-r+/results/willow.out
Timesteps: 1
s UNSATISFIABLE
real 0.30
user 0.02
sys 0.00
Timesteps: 2
s UNSATISFIABLE
real 0.21
user 0.06
sys 0.00
Timesteps: 3
s UNSATISFIABLE
real 0.32
user 0.13
sys 0.01
Timesteps: 4
s UNSATISFIABLE
real 0.52
user 0.37
sys 0.00
Timesteps: 5
s UNSATISFIABLE
real 0.82
user 0.56
sys 0.02
Timesteps: 6
s UNSATISFIABLE
real 1.45
user 1.19
sys 0.02
Timesteps: 7
s UNSATISFIABLE
real 2.15
user 1.84
sys 0.02
Timesteps: 8
s UNSATISFIABLE
real 4.37
user 3.56
sys 0.03
Timesteps: 9
s UNSATISFIABLE
real 10.38
user 9.48
sys 0.04
Timesteps: 10
s UNSATISFIABLE
real 13.90
user 12.87
sys 0.05
Timesteps: 11
s UNSATISFIABLE
real 25.81
user 24.61
sys 0.07
Timesteps: 12
s UNSATISFIABLE
real 32.13
user 30.77
sys 0.07
Timesteps: 13
s UNSATISFIABLE
real 28.23
user 26.84
sys 0.11
Timesteps: 14
s SATISFIABLE
real 31.94
user 31.17
sys 0.10
